Sun 20 May 09:37:36 CEST 2018
CPXPARAM_TimeLimit                               45
CPXPARAM_Threads                                 4
CPXPARAM_MIP_Strategy_CallbackReducedLP          0
Tried aggregator 3 times.
MIP Presolve eliminated 410 rows and 383 columns.
MIP Presolve modified 648 coefficients.
Aggregator did 1328 substitutions.
Reduced MIP has 2170 rows, 1756 columns, and 4870 nonzeros.
Reduced MIP has 1540 binaries, 4 generals, 0 SOSs, and 236 indicators.
Presolve time = 0.01 sec. (15.03 ticks)
Found incumbent of value 7.000000 after 0.02 sec. (20.80 ticks)
Probing time = 0.03 sec. (23.66 ticks)
Cover probing fixed 0 vars, tightened 2 bounds.
Tried aggregator 3 times.
MIP Presolve modified 20 coefficients.
Aggregator did 920 substitutions.
Reduced MIP has 1260 rows, 836 columns, and 3050 nonzeros.
Reduced MIP has 620 binaries, 216 generals, 0 SOSs, and 226 indicators.
Presolve time = 0.00 sec. (5.29 ticks)
Probing time = 0.01 sec. (10.05 ticks)
Tried aggregator 2 times.
Aggregator did 10 substitutions.
Reduced MIP has 1250 rows, 826 columns, and 3030 nonzeros.
Reduced MIP has 610 binaries, 216 generals, 0 SOSs, and 226 indicators.
Presolve time = 0.00 sec. (3.46 ticks)
Probing time = 0.00 sec. (3.34 ticks)
Clique table members: 7037.
MIP emphasis: balance optimality and feasibility.
MIP search method: dynamic search.
Parallel mode: deterministic, using up to 4 threads.
Root relaxation solution time = 0.01 sec. (7.41 ticks)

        Nodes                                         Cuts/
   Node  Left     Objective  IInf  Best Integer    Best Bound    ItCnt     Gap

*     0+    0                            7.0000        1.0000            85.71%
      0     0        1.0000   318        7.0000        1.0000      204   85.71%
*     0+    0                            4.0000        1.0000            75.00%
*     0+    0                            1.0000        1.0000             0.00%
      0     0        cutoff              1.0000        1.0000      204    0.00%
Elapsed time = 0.20 sec. (175.16 ticks, tree = 0.01 MB, solutions = 3)

Root node processing (before b&c):
  Real time             =    0.20 sec. (175.30 ticks)
Parallel b&c, 4 threads:
  Real time             =    0.00 sec. (0.00 ticks)
  Sync time (average)   =    0.00 sec.
  Wait time (average)   =    0.00 sec.
                          ------------
Total (root+branch&cut) =    0.20 sec. (175.30 ticks)
  | W
L | 0 1 2 3 4 5 6 7 8 9 
-------------------------
0 | . . 1 1 1 2 2 2 . 3 
1 | . . . . . . . . . . 
2 | . . . . . . . . . . 
3 | . . . . . . . . . . 
4 | . . . . . . . . . . 
5 | . . . . . . . . . . 
6 | . . . . . . . . . . 

Boxes' corners:      (w,l)
    Box 1 is at 
        top left     (2,0)
        bottom right (4,0)

    Box 2 is at 
        top left     (5,0)
        bottom right (7,0)

    Box 3 is at 
        top left     (9,0)
        bottom right (9,0)

    Roll length used: 1
In 0.34 seconds
